33
42
48
150
53
0
76
44
40
38
167
0
65
0
33
0
0
15
42
0
78
38
18
33
32
46
80
28
87
49
31
27
47
74
234
56
0
60
64
64
153
49
52
31
73
17
0
35
19
0
72
65
48
202
40
0
61
39
27
0
43
0
24
23
155
66
54
26
0
0
37
17
39
41
48
20
59
14
67
42
18
144
24
26
95
23
117
18
34
52
48
34
32
62
28
42
22
42
67
36
